tsp_instances/TSP50/instance47.tsp
NODE_COORD_SECTION
0 69 54
1 32 61
2 155 28
3 156 21
4 183 4
5 192 58
6 68 199
7 115 136
8 86 131
9 188 62
10 198 165
11 121 134
12 37 149
13 74 4
14 135 72
15 76 36
16 73 176
17 34 104
18 98 29
19 17 173
20 11 126
21 8 166
22 29 196
23 31 198
24 107 28
25 86 38
26 149 99
27 120 112
28 109 48
29 44 76
30 185 85
31 55 179
32 159 2
33 132 137
34 31 92
35 195 174
36 66 179
37 120 155
38 172 8
39 190 30
40 185 95
41 75 183
42 138 42
43 42 113
44 139 182
45 35 188
46 70 88
47 176 100
48 138 9
49 60 58
