tsp_instances/TSP50/instance47.opt.tour
TOUR_SECTION
1
16
26
14
19
25
29
15
43
3
4
49
33
39
5
40
6
10
31
41
48
27
11
36
45
38
34
12
8
28
9
17
42
7
37
32
46
24
23
20
22
13
21
44
18
35
2
30
47
50
-1